Maximize

8.0 x_0_0 + 10.0 x_0_4 + 7.0 x_0_6 + 8.0 x_1_0 + 7.0 x_1_6 + 8.0 x_2_0 + 7.0 x_2_6 + 8.0 x_3_0 + 7.0 x_3_6 + 8.0 x_4_0 + 10.0 x_4_3 + 7.0 x_4_6 + 8.0 x_5_0 + 7.0 x_5_6 + 8.0 x_6_0 + 7.0 x_6_6 + 8.0 x_7_0 + 10.0 x_7_6 + 8.0 x_8_0 + 7.0 x_8_6 + 8.0 x_9_0 + 10.0 x_9_2 + 7.0 x_9_6 + 8.0 x_10_0 + 7.0 x_10_6 + 8.0 x_11_0 + 7.0 x_11_6 + 8.0 x_12_0 + 7.0 x_12_6 + 8.0 x_13_0 + 7.0 x_13_6 + 8.0 x_14_0 + 10.0 x_14_1 + 7.0 x_14_6 + 8.0 x_15_0 + 7.0 x_15_6 + 8.0 x_16_0 + 7.0 x_16_6 + 8.0 x_17_0 + 10.0 x_17_5 + 7.0 x_17_6 + 8.0 x_18_0 + 7.0 x_18_6 + 10.0 x_19_0 + 7.0 x_19_6


Subject To

a0: x_0_0 + x_1_0 + x_2_0 + x_3_0 + x_4_0 + x_5_0 + x_6_0 + x_7_0 + x_8_0 + x_9_0 + x_10_0 + x_11_0 + x_12_0 + x_13_0 + x_14_0 + x_15_0 + x_16_0 + x_17_0 + x_18_0 + x_19_0 = 1
a1: x_0_1 + x_1_1 + x_2_1 + x_3_1 + x_4_1 + x_5_1 + x_6_1 + x_7_1 + x_8_1 + x_9_1 + x_10_1 + x_11_1 + x_12_1 + x_13_1 + x_14_1 + x_15_1 + x_16_1 + x_17_1 + x_18_1 + x_19_1 = 1
a2: x_0_2 + x_1_2 + x_2_2 + x_3_2 + x_4_2 + x_5_2 + x_6_2 + x_7_2 + x_8_2 + x_9_2 + x_10_2 + x_11_2 + x_12_2 + x_13_2 + x_14_2 + x_15_2 + x_16_2 + x_17_2 + x_18_2 + x_19_2 = 1
a3: x_0_3 + x_1_3 + x_2_3 + x_3_3 + x_4_3 + x_5_3 + x_6_3 + x_7_3 + x_8_3 + x_9_3 + x_10_3 + x_11_3 + x_12_3 + x_13_3 + x_14_3 + x_15_3 + x_16_3 + x_17_3 + x_18_3 + x_19_3 = 1
a4: x_0_4 + x_1_4 + x_2_4 + x_3_4 + x_4_4 + x_5_4 + x_6_4 + x_7_4 + x_8_4 + x_9_4 + x_10_4 + x_11_4 + x_12_4 + x_13_4 + x_14_4 + x_15_4 + x_16_4 + x_17_4 + x_18_4 + x_19_4 = 1
a5: x_0_5 + x_1_5 + x_2_5 + x_3_5 + x_4_5 + x_5_5 + x_6_5 + x_7_5 + x_8_5 + x_9_5 + x_10_5 + x_11_5 + x_12_5 + x_13_5 + x_14_5 + x_15_5 + x_16_5 + x_17_5 + x_18_5 + x_19_5 = 1
a6: x_0_6 + x_1_6 + x_2_6 + x_3_6 + x_4_6 + x_5_6 + x_6_6 + x_7_6 + x_8_6 + x_9_6 + x_10_6 + x_11_6 + x_12_6 + x_13_6 + x_14_6 + x_15_6 + x_16_6 + x_17_6 + x_18_6 + x_19_6 = 1
b0: x_0_0 + x_0_1 + x_0_2 + x_0_3 + x_0_4 + x_0_5 + x_0_6 <= 1
b1: x_1_0 + x_1_1 + x_1_2 + x_1_3 + x_1_4 + x_1_5 + x_1_6 <= 1
b2: x_2_0 + x_2_1 + x_2_2 + x_2_3 + x_2_4 + x_2_5 + x_2_6 <= 1
b3: x_3_0 + x_3_1 + x_3_2 + x_3_3 + x_3_4 + x_3_5 + x_3_6 <= 1
b4: x_4_0 + x_4_1 + x_4_2 + x_4_3 + x_4_4 + x_4_5 + x_4_6 <= 1
b5: x_5_0 + x_5_1 + x_5_2 + x_5_3 + x_5_4 + x_5_5 + x_5_6 <= 1
b6: x_6_0 + x_6_1 + x_6_2 + x_6_3 + x_6_4 + x_6_5 + x_6_6 <= 1
b7: x_7_0 + x_7_1 + x_7_2 + x_7_3 + x_7_4 + x_7_5 + x_7_6 <= 1
b8: x_8_0 + x_8_1 + x_8_2 + x_8_3 + x_8_4 + x_8_5 + x_8_6 <= 1
b9: x_9_0 + x_9_1 + x_9_2 + x_9_3 + x_9_4 + x_9_5 + x_9_6 <= 1
b10: x_10_0 + x_10_1 + x_10_2 + x_10_3 + x_10_4 + x_10_5 + x_10_6 <= 1
b11: x_11_0 + x_11_1 + x_11_2 + x_11_3 + x_11_4 + x_11_5 + x_11_6 <= 1
b12: x_12_0 + x_12_1 + x_12_2 + x_12_3 + x_12_4 + x_12_5 + x_12_6 <= 1
b13: x_13_0 + x_13_1 + x_13_2 + x_13_3 + x_13_4 + x_13_5 + x_13_6 <= 1
b14: x_14_0 + x_14_1 + x_14_2 + x_14_3 + x_14_4 + x_14_5 + x_14_6 <= 1
b15: x_15_0 + x_15_1 + x_15_2 + x_15_3 + x_15_4 + x_15_5 + x_15_6 <= 1
b16: x_16_0 + x_16_1 + x_16_2 + x_16_3 + x_16_4 + x_16_5 + x_16_6 <= 1
b17: x_17_0 + x_17_1 + x_17_2 + x_17_3 + x_17_4 + x_17_5 + x_17_6 <= 1
b18: x_18_0 + x_18_1 + x_18_2 + x_18_3 + x_18_4 + x_18_5 + x_18_6 <= 1
b19: x_19_0 + x_19_1 + x_19_2 + x_19_3 + x_19_4 + x_19_5 + x_19_6 <= 1
c0: x_0_0 = 1 -> 8.0 y >= 7
c1: x_0_1 = 1 -> 5.0 y >= 7
c2: x_0_2 = 1 -> 2.0 y >= 7
c3: x_0_3 = 1 -> 0.0 y >= 7
c4: x_0_4 = 1 -> 10.0 y >= 7
c5: x_0_5 = 1 -> 6.0 y >= 7
c6: x_0_6 = 1 -> 7.0 y >= 7
c7: x_1_0 = 1 -> 8.0 y >= 7
c8: x_1_1 = 1 -> 5.0 y >= 7
c9: x_1_2 = 1 -> 2.0 y >= 7
c10: x_1_3 = 1 -> 0.0 y >= 7
c11: x_1_4 = 1 -> 5.0 y >= 7
c12: x_1_5 = 1 -> 6.0 y >= 7
c13: x_1_6 = 1 -> 7.0 y >= 7
c14: x_2_0 = 1 -> 8.0 y >= 7
c15: x_2_1 = 1 -> 5.0 y >= 7
c16: x_2_2 = 1 -> 2.0 y >= 7
c17: x_2_3 = 1 -> 0.0 y >= 7
c18: x_2_4 = 1 -> 5.0 y >= 7
c19: x_2_5 = 1 -> 6.0 y >= 7
c20: x_2_6 = 1 -> 7.0 y >= 7
c21: x_3_0 = 1 -> 8.0 y >= 7
c22: x_3_1 = 1 -> 5.0 y >= 7
c23: x_3_2 = 1 -> 2.0 y >= 7
c24: x_3_3 = 1 -> 0.0 y >= 7
c25: x_3_4 = 1 -> 5.0 y >= 7
c26: x_3_5 = 1 -> 6.0 y >= 7
c27: x_3_6 = 1 -> 7.0 y >= 7
c28: x_4_0 = 1 -> 8.0 y >= 7
c29: x_4_1 = 1 -> 5.0 y >= 7
c30: x_4_2 = 1 -> 2.0 y >= 7
c31: x_4_3 = 1 -> 10.0 y >= 7
c32: x_4_4 = 1 -> 5.0 y >= 7
c33: x_4_5 = 1 -> 6.0 y >= 7
c34: x_4_6 = 1 -> 7.0 y >= 7
c35: x_5_0 = 1 -> 8.0 y >= 7
c36: x_5_1 = 1 -> 5.0 y >= 7
c37: x_5_2 = 1 -> 2.0 y >= 7
c38: x_5_3 = 1 -> 0.0 y >= 7
c39: x_5_4 = 1 -> 5.0 y >= 7
c40: x_5_5 = 1 -> 6.0 y >= 7
c41: x_5_6 = 1 -> 7.0 y >= 7
c42: x_6_0 = 1 -> 8.0 y >= 7
c43: x_6_1 = 1 -> 5.0 y >= 7
c44: x_6_2 = 1 -> 2.0 y >= 7
c45: x_6_3 = 1 -> 0.0 y >= 7
c46: x_6_4 = 1 -> 5.0 y >= 7
c47: x_6_5 = 1 -> 6.0 y >= 7
c48: x_6_6 = 1 -> 7.0 y >= 7
c49: x_7_0 = 1 -> 8.0 y >= 7
c50: x_7_1 = 1 -> 5.0 y >= 7
c51: x_7_2 = 1 -> 2.0 y >= 7
c52: x_7_3 = 1 -> 0.0 y >= 7
c53: x_7_4 = 1 -> 5.0 y >= 7
c54: x_7_5 = 1 -> 6.0 y >= 7
c55: x_7_6 = 1 -> 10.0 y >= 7
c56: x_8_0 = 1 -> 8.0 y >= 7
c57: x_8_1 = 1 -> 5.0 y >= 7
c58: x_8_2 = 1 -> 2.0 y >= 7
c59: x_8_3 = 1 -> 0.0 y >= 7
c60: x_8_4 = 1 -> 5.0 y >= 7
c61: x_8_5 = 1 -> 6.0 y >= 7
c62: x_8_6 = 1 -> 7.0 y >= 7
c63: x_9_0 = 1 -> 8.0 y >= 7
c64: x_9_1 = 1 -> 5.0 y >= 7
c65: x_9_2 = 1 -> 10.0 y >= 7
c66: x_9_3 = 1 -> 0.0 y >= 7
c67: x_9_4 = 1 -> 5.0 y >= 7
c68: x_9_5 = 1 -> 6.0 y >= 7
c69: x_9_6 = 1 -> 7.0 y >= 7
c70: x_10_0 = 1 -> 8.0 y >= 7
c71: x_10_1 = 1 -> 5.0 y >= 7
c72: x_10_2 = 1 -> 2.0 y >= 7
c73: x_10_3 = 1 -> 0.0 y >= 7
c74: x_10_4 = 1 -> 5.0 y >= 7
c75: x_10_5 = 1 -> 6.0 y >= 7
c76: x_10_6 = 1 -> 7.0 y >= 7
c77: x_11_0 = 1 -> 8.0 y >= 7
c78: x_11_1 = 1 -> 5.0 y >= 7
c79: x_11_2 = 1 -> 2.0 y >= 7
c80: x_11_3 = 1 -> 0.0 y >= 7
c81: x_11_4 = 1 -> 5.0 y >= 7
c82: x_11_5 = 1 -> 6.0 y >= 7
c83: x_11_6 = 1 -> 7.0 y >= 7
c84: x_12_0 = 1 -> 8.0 y >= 7
c85: x_12_1 = 1 -> 5.0 y >= 7
c86: x_12_2 = 1 -> 2.0 y >= 7
c87: x_12_3 = 1 -> 0.0 y >= 7
c88: x_12_4 = 1 -> 5.0 y >= 7
c89: x_12_5 = 1 -> 6.0 y >= 7
c90: x_12_6 = 1 -> 7.0 y >= 7
c91: x_13_0 = 1 -> 8.0 y >= 7
c92: x_13_1 = 1 -> 5.0 y >= 7
c93: x_13_2 = 1 -> 2.0 y >= 7
c94: x_13_3 = 1 -> 0.0 y >= 7
c95: x_13_4 = 1 -> 5.0 y >= 7
c96: x_13_5 = 1 -> 6.0 y >= 7
c97: x_13_6 = 1 -> 7.0 y >= 7
c98: x_14_0 = 1 -> 8.0 y >= 7
c99: x_14_1 = 1 -> 10.0 y >= 7
c100: x_14_2 = 1 -> 2.0 y >= 7
c101: x_14_3 = 1 -> 0.0 y >= 7
c102: x_14_4 = 1 -> 5.0 y >= 7
c103: x_14_5 = 1 -> 6.0 y >= 7
c104: x_14_6 = 1 -> 7.0 y >= 7
c105: x_15_0 = 1 -> 8.0 y >= 7
c106: x_15_1 = 1 -> 5.0 y >= 7
c107: x_15_2 = 1 -> 2.0 y >= 7
c108: x_15_3 = 1 -> 0.0 y >= 7
c109: x_15_4 = 1 -> 5.0 y >= 7
c110: x_15_5 = 1 -> 6.0 y >= 7
c111: x_15_6 = 1 -> 7.0 y >= 7
c112: x_16_0 = 1 -> 8.0 y >= 7
c113: x_16_1 = 1 -> 5.0 y >= 7
c114: x_16_2 = 1 -> 2.0 y >= 7
c115: x_16_3 = 1 -> 0.0 y >= 7
c116: x_16_4 = 1 -> 5.0 y >= 7
c117: x_16_5 = 1 -> 6.0 y >= 7
c118: x_16_6 = 1 -> 7.0 y >= 7
c119: x_17_0 = 1 -> 8.0 y >= 7
c120: x_17_1 = 1 -> 5.0 y >= 7
c121: x_17_2 = 1 -> 2.0 y >= 7
c122: x_17_3 = 1 -> 0.0 y >= 7
c123: x_17_4 = 1 -> 5.0 y >= 7
c124: x_17_5 = 1 -> 10.0 y >= 7
c125: x_17_6 = 1 -> 7.0 y >= 7
c126: x_18_0 = 1 -> 8.0 y >= 7
c127: x_18_1 = 1 -> 5.0 y >= 7
c128: x_18_2 = 1 -> 2.0 y >= 7
c129: x_18_3 = 1 -> 0.0 y >= 7
c130: x_18_4 = 1 -> 5.0 y >= 7
c131: x_18_5 = 1 -> 6.0 y >= 7
c132: x_18_6 = 1 -> 7.0 y >= 7
c133: x_19_0 = 1 -> 10.0 y >= 7
c134: x_19_1 = 1 -> 5.0 y >= 7
c135: x_19_2 = 1 -> 2.0 y >= 7
c136: x_19_3 = 1 -> 0.0 y >= 7
c137: x_19_4 = 1 -> 5.0 y >= 7
c138: x_19_5 = 1 -> 6.0 y >= 7
c139: x_19_6 = 1 -> 7.0 y >= 7
d0: y = 1




Binary

x_0_0 x_0_1 x_0_2 x_0_3 x_0_4 x_0_5 x_0_6 x_1_0 x_1_1 x_1_2 x_1_3 x_1_4 x_1_5 x_1_6 x_2_0 x_2_1 x_2_2 x_2_3 x_2_4 x_2_5 x_2_6 x_3_0 x_3_1 x_3_2 x_3_3 x_3_4 x_3_5 x_3_6 x_4_0 x_4_1 x_4_2 x_4_3 x_4_4 x_4_5 x_4_6 x_5_0 x_5_1 x_5_2 x_5_3 x_5_4 x_5_5 x_5_6 x_6_0 x_6_1 x_6_2 x_6_3 x_6_4 x_6_5 x_6_6 x_7_0 x_7_1 x_7_2 x_7_3 x_7_4 x_7_5 x_7_6 x_8_0 x_8_1 x_8_2 x_8_3 x_8_4 x_8_5 x_8_6 x_9_0 x_9_1 x_9_2 x_9_3 x_9_4 x_9_5 x_9_6 x_10_0 x_10_1 x_10_2 x_10_3 x_10_4 x_10_5 x_10_6 x_11_0 x_11_1 x_11_2 x_11_3 x_11_4 x_11_5 x_11_6 x_12_0 x_12_1 x_12_2 x_12_3 x_12_4 x_12_5 x_12_6 x_13_0 x_13_1 x_13_2 x_13_3 x_13_4 x_13_5 x_13_6 x_14_0 x_14_1 x_14_2 x_14_3 x_14_4 x_14_5 x_14_6 x_15_0 x_15_1 x_15_2 x_15_3 x_15_4 x_15_5 x_15_6 x_16_0 x_16_1 x_16_2 x_16_3 x_16_4 x_16_5 x_16_6 x_17_0 x_17_1 x_17_2 x_17_3 x_17_4 x_17_5 x_17_6 x_18_0 x_18_1 x_18_2 x_18_3 x_18_4 x_18_5 x_18_6 x_19_0 x_19_1 x_19_2 x_19_3 x_19_4 x_19_5 x_19_6

 
End
